22119.77 0
0 18 70 56 23 50 32 96 52 95 75 28 65 22 10 20 30 38 63 1 93 21 17 87 82 71 88 92 35 68 43 67 73 78 49 27 2 83 86 26 34 45 60 51 53 19 55 4 40 42 62 24 41 31 16 76 90 36 58 80 15 79 39 97 91 54 57 14 46 6 29 59 9 99 98 69 64 5 11 33 66 48 94 3 74 89 84 37 12 25 61 81 7 13 72 77 85 44 8 47